p cnf 430 1488
-191 46 0
-191 -41 0
-191 -111 0
-191 -173 0
-191 -10 0
191 -46 41 111 173 10 0
-192 14 0
-192 2 0
-192 -10 0
-192 69 0
-192 189 0
192 -14 -2 10 -69 -189 0
-193 188 0
-193 101 0
-193 -92 0
-193 184 0
-193 2 0
193 -188 -101 92 -184 -2 0
-194 -132 0
-194 -76 0
-194 178 0
-194 29 0
-194 -28 0
194 132 76 -178 -29 28 0
-195 107 0
-195 71 0
-195 -68 0
-195 -92 0
-195 20 0
195 -107 -71 68 92 -20 0
191 192 193 194 195 0
-196 -98 0
-196 -77 0
-196 108 0
-196 10 0
-196 -128 0
196 98 77 -108 -10 128 0
-197 182 0
-197 -95 0
-197 -146 0
-197 -116 0
-197 -115 0
197 -182 95 146 116 115 0
-198 186 0
-198 -140 0
-198 163 0
-198 -77 0
-198 20 0
198 -186 140 -163 77 -20 0
-199 141 0
-199 101 0
-199 -167 0
-199 -52 0
-199 147 0
199 -141 -101 167 52 -147 0
-200 112 0
-200 -179 0
-200 -182 0
-200 -56 0
-200 125 0
200 -112 179 182 56 -125 0
196 197 198 199 200 0
-201 -169 0
-201 97 0
-201 37 0
-201 139 0
-201 43 0
201 169 -97 -37 -139 -43 0
-202 -161 0
-202 -189 0
-202 119 0
-202 -123 0
-202 180 0
202 161 189 -119 123 -180 0
-203 57 0
-203 -16 0
-203 50 0
-203 -154 0
-203 -79 0
203 -57 16 -50 154 79 0
-204 -41 0
-204 26 0
-204 -178 0
-204 95 0
-204 -97 0
204 41 -26 178 -95 97 0
-205 -20 0
-205 -172 0
-205 107 0
-205 -96 0
-205 102 0
205 20 172 -107 96 -102 0
201 202 203 204 205 0
-206 -51 0
-206 88 0
-206 9 0
-206 -159 0
-206 190 0
206 51 -88 -9 159 -190 0
-207 -2 0
-207 75 0
-207 -125 0
-207 -18 0
-207 26 0
207 2 -75 125 18 -26 0
-208 135 0
-208 -5 0
-208 89 0
-208 -10 0
-208 -113 0
208 -135 5 -89 10 113 0
-209 -100 0
-209 -177 0
-209 -95 0
-209 54 0
-209 -114 0
209 100 177 95 -54 114 0
-210 118 0
-210 1 0
-210 170 0
-210 -85 0
-210 -37 0
210 -118 -1 -170 85 37 0
206 207 208 209 210 0
-211 78 0
-211 -117 0
-211 -130 0
-211 -110 0
-211 104 0
211 -78 117 130 110 -104 0
-212 -46 0
-212 64 0
-212 107 0
-212 15 0
-212 26 0
212 46 -64 -107 -15 -26 0
-213 -10 0
-213 -120 0
-213 152 0
-213 98 0
-213 17 0
213 10 120 -152 -98 -17 0
-214 163 0
-214 -46 0
-214 49 0
-214 9 0
-214 -85 0
214 -163 46 -49 -9 85 0
-215 -30 0
-215 53 0
-215 78 0
-215 76 0
-215 -111 0
215 30 -53 -78 -76 111 0
211 212 213 214 215 0
-216 -176 0
-216 -92 0
-216 118 0
-216 60 0
-216 16 0
216 176 92 -118 -60 -16 0
-217 -16 0
-217 -99 0
-217 -80 0
-217 -186 0
-217 -5 0
217 16 99 80 186 5 0
-218 -127 0
-218 80 0
-218 11 0
-218 173 0
-218 161 0
218 127 -80 -11 -173 -161 0
-219 105 0
-219 75 0
-219 64 0
-219 49 0
-219 -111 0
219 -105 -75 -64 -49 111 0
-220 26 0
-220 -78 0
-220 33 0
-220 -56 0
-220 38 0
220 -26 78 -33 56 -38 0
216 217 218 219 220 0
-221 -96 0
-221 -26 0
-221 37 0
-221 67 0
-221 129 0
221 96 26 -37 -67 -129 0
-222 -84 0
-222 -21 0
-222 65 0
-222 51 0
-222 174 0
222 84 21 -65 -51 -174 0
-223 66 0
-223 -177 0
-223 48 0
-223 -74 0
-223 -26 0
223 -66 177 -48 74 26 0
-224 119 0
-224 27 0
-224 -176 0
-224 146 0
-224 172 0
224 -119 -27 176 -146 -172 0
-225 26 0
-225 32 0
-225 -69 0
-225 79 0
-225 179 0
225 -26 -32 69 -79 -179 0
221 222 223 224 225 0
-226 -166 0
-226 81 0
-226 -133 0
-226 45 0
-226 -164 0
226 166 -81 133 -45 164 0
-227 -190 0
-227 -146 0
-227 151 0
-227 -84 0
-227 -167 0
227 190 146 -151 84 167 0
-228 -47 0
-228 105 0
-228 74 0
-228 27 0
-228 -55 0
228 47 -105 -74 -27 55 0
-229 -176 0
-229 153 0
-229 21 0
-229 -105 0
-229 -113 0
229 176 -153 -21 105 113 0
-230 118 0
-230 -124 0
-230 83 0
-230 -73 0
-230 162 0
230 -118 124 -83 73 -162 0
226 227 228 229 230 0
-231 121 0
-231 34 0
-231 -70 0
-231 -67 0
-231 -90 0
231 -121 -34 70 67 90 0
-232 -170 0
-232 174 0
-232 3 0
-232 60 0
-232 -56 0
232 170 -174 -3 -60 56 0
-233 24 0
-233 -144 0
-233 -87 0
-233 -82 0
-233 -156 0
233 -24 144 87 82 156 0
-234 -4 0
-234 157 0
-234 60 0
-234 -77 0
-234 20 0
234 4 -157 -60 77 -20 0
-235 -96 0
-235 100 0
-235 22 0
-235 -64 0
-235 171 0
235 96 -100 -22 64 -171 0
231 232 233 234 235 0
-236 177 0
-236 124 0
-236 -30 0
-236 -12 0
-236 112 0
236 -177 -124 30 12 -112 0
-237 176 0
-237 -51 0
-237 -66 0
-237 14 0
-237 93 0
237 -176 51 66 -14 -93 0
-238 147 0
-238 27 0
-238 37 0
-238 -108 0
-238 60 0
238 -147 -27 -37 108 -60 0
-239 -33 0
-239 -19 0
-239 -26 0
-239 5 0
-239 -77 0
239 33 19 26 -5 77 0
-240 -110 0
-240 -80 0
-240 152 0
-240 -58 0
-240 -126 0
240 110 80 -152 58 126 0
236 237 238 239 240 0
-241 -46 0
-241 146 0
-241 -15 0
-241 -44 0
-241 81 0
241 46 -146 15 44 -81 0
-242 159 0
-242 96 0
-242 -53 0
-242 -21 0
-242 -102 0
242 -159 -96 53 21 102 0
-243 175 0
-243 -132 0
-243 10 0
-243 -113 0
-243 -33 0
243 -175 132 -10 113 33 0
-244 49 0
-244 -167 0
-244 -31 0
-244 -68 0
-244 108 0
244 -49 167 31 68 -108 0
-245 -166 0
-245 -101 0
-245 59 0
-245 -67 0
-245 -76 0
245 166 101 -59 67 76 0
241 242 243 244 245 0
-246 -94 0
-246 97 0
-246 79 0
-246 -144 0
-246 -85 0
246 94 -97 -79 144 85 0
-247 -50 0
-247 174 0
-247 -127 0
-247 -102 0
-247 63 0
247 50 -174 127 102 -63 0
-248 101 0
-248 13 0
-248 -5 0
-248 15 0
-248 -162 0
248 -101 -13 5 -15 162 0
-249 -48 0
-249 -27 0
-249 72 0
-249 -10 0
-249 -52 0
249 48 27 -72 10 52 0
-250 -65 0
-250 -73 0
-250 23 0
-250 144 0
-250 34 0
250 65 73 -23 -144 -34 0
246 247 248 249 250 0
-251 138 0
-251 -80 0
-251 -68 0
-251 -108 0
-251 19 0
251 -138 80 68 108 -19 0
-252 -29 0
-252 139 0
-252 -57 0
-252 -41 0
-252 -178 0
252 29 -139 57 41 178 0
-253 -88 0
-253 54 0
-253 69 0
-253 -9 0
-253 -107 0
253 88 -54 -69 9 107 0
-254 -122 0
-254 178 0
-254 94 0
-254 118 0
-254 190 0
254 122 -178 -94 -118 -190 0
-255 -130 0
-255 -178 0
-255 -24 0
-255 -42 0
-255 31 0
255 130 178 24 42 -31 0
251 252 253 254 255 0
-256 5 0
-256 189 0
-256 -132 0
-256 -62 0
-256 100 0
256 -5 -189 132 62 -100 0
-257 -105 0
-257 -154 0
-257 -100 0
-257 68 0
-257 138 0
257 105 154 100 -68 -138 0
-258 -3 0
-258 163 0
-258 -162 0
-258 -1 0
-258 -161 0
258 3 -163 162 1 161 0
-259 16 0
-259 -102 0
-259 -139 0
-259 39 0
-259 27 0
259 -16 102 139 -39 -27 0
-260 125 0
-260 124 0
-260 -48 0
-260 173 0
-260 -28 0
260 -125 -124 48 -173 28 0
256 257 258 259 260 0
-261 -50 0
-261 -153 0
-261 130 0
-261 -30 0
-261 -74 0
261 50 153 -130 30 74 0
-262 141 0
-262 147 0
-262 113 0
-262 -98 0
-262 73 0
262 -141 -147 -113 98 -73 0
-263 -35 0
-263 -21 0
-263 -88 0
-263 116 0
-263 36 0
263 35 21 88 -116 -36 0
-264 134 0
-264 173 0
-264 -98 0
-264 52 0
-264 -22 0
264 -134 -173 98 -52 22 0
-265 1 0
-265 151 0
-265 -73 0
-265 -159 0
-265 32 0
265 -1 -151 73 159 -32 0
261 262 263 264 265 0
-266 -88 0
-266 -26 0
-266 -8 0
-266 -27 0
-266 34 0
266 88 26 8 27 -34 0
-267 19 0
-267 -21 0
-267 63 0
-267 113 0
-267 141 0
267 -19 21 -63 -113 -141 0
-268 -163 0
-268 -165 0
-268 80 0
-268 -69 0
-268 -139 0
268 163 165 -80 69 139 0
-269 -114 0
-269 -94 0
-269 -45 0
-269 49 0
-269 113 0
269 114 94 45 -49 -113 0
-270 120 0
-270 -53 0
-270 -78 0
-270 -160 0
-270 143 0
270 -120 53 78 160 -143 0
266 267 268 269 270 0
-271 -65 0
-271 -189 0
-271 12 0
-271 10 0
-271 28 0
271 65 189 -12 -10 -28 0
-272 -12 0
-272 94 0
-272 -19 0
-272 185 0
-272 -103 0
272 12 -94 19 -185 103 0
-273 -90 0
-273 136 0
-273 -53 0
-273 139 0
-273 -70 0
273 90 -136 53 -139 70 0
-274 -140 0
-274 -174 0
-274 85 0
-274 101 0
-274 39 0
274 140 174 -85 -101 -39 0
-275 149 0
-275 -185 0
-275 -61 0
-275 -91 0
-275 79 0
275 -149 185 61 91 -79 0
271 272 273 274 275 0
-276 -58 0
-276 62 0
-276 -131 0
-276 75 0
-276 130 0
276 58 -62 131 -75 -130 0
-277 -141 0
-277 116 0
-277 120 0
-277 -80 0
-277 -10 0
277 141 -116 -120 80 10 0
-278 -81 0
-278 125 0
-278 -85 0
-278 -51 0
-278 -53 0
278 81 -125 85 51 53 0
-279 171 0
-279 -88 0
-279 -79 0
-279 46 0
-279 -129 0
279 -171 88 79 -46 129 0
-280 29 0
-280 -140 0
-280 62 0
-280 122 0
-280 104 0
280 -29 140 -62 -122 -104 0
276 277 278 279 280 0
-281 190 0
-281 -173 0
-281 65 0
-281 45 0
-281 -154 0
281 -190 173 -65 -45 154 0
-282 14 0
-282 6 0
-282 92 0
-282 -156 0
-282 60 0
282 -14 -6 -92 156 -60 0
-283 -31 0
-283 -113 0
-283 121 0
-283 -190 0
-283 173 0
283 31 113 -121 190 -173 0
-284 -70 0
-284 -171 0
-284 183 0
-284 80 0
-284 17 0
284 70 171 -183 -80 -17 0
-285 -19 0
-285 174 0
-285 115 0
-285 -100 0
-285 93 0
285 19 -174 -115 100 -93 0
281 282 283 284 285 0
-286 26 0
-286 -159 0
-286 -48 0
-286 116 0
-286 18 0
286 -26 159 48 -116 -18 0
-287 -119 0
-287 -117 0
-287 171 0
-287 -138 0
-287 158 0
287 119 117 -171 138 -158 0
-288 118 0
-288 163 0
-288 -128 0
-288 134 0
-288 -22 0
288 -118 -163 128 -134 22 0
-289 -180 0
-289 12 0
-289 -173 0
-289 -89 0
-289 152 0
289 180 -12 173 89 -152 0
-290 156 0
-290 175 0
-290 -49 0
-290 -25 0
-290 -95 0
290 -156 -175 49 25 95 0
286 287 288 289 290 0
-291 -133 0
-291 82 0
-291 70 0
-291 -63 0
-291 46 0
291 133 -82 -70 63 -46 0
-292 -98 0
-292 -69 0
-292 83 0
-292 153 0
-292 -5 0
292 98 69 -83 -153 5 0
-293 -103 0
-293 -60 0
-293 -141 0
-293 -28 0
-293 -187 0
293 103 60 141 28 187 0
-294 88 0
-294 -106 0
-294 137 0
-294 -30 0
-294 110 0
294 -88 106 -137 30 -110 0
-295 136 0
-295 -122 0
-295 63 0
-295 2 0
-295 -160 0
295 -136 122 -63 -2 160 0
291 292 293 294 295 0
-296 92 0
-296 164 0
-296 -187 0
-296 33 0
-296 -166 0
296 -92 -164 187 -33 166 0
-297 16 0
-297 -36 0
-297 -108 0
-297 33 0
-297 -45 0
297 -16 36 108 -33 45 0
-298 9 0
-298 -176 0
-298 41 0
-298 -5 0
-298 -123 0
298 -9 176 -41 5 123 0
-299 -3 0
-299 65 0
-299 -49 0
-299 -146 0
-299 -55 0
299 3 -65 49 146 55 0
-300 114 0
-300 -74 0
-300 -188 0
-300 151 0
-300 81 0
300 -114 74 188 -151 -81 0
296 297 298 299 300 0
-301 -100 0
-301 64 0
-301 151 0
-301 156 0
-301 -184 0
301 100 -64 -151 -156 184 0
-302 -173 0
-302 168 0
-302 -102 0
-302 -77 0
-302 46 0
302 173 -168 102 77 -46 0
-303 144 0
-303 44 0
-303 67 0
-303 -27 0
-303 -172 0
303 -144 -44 -67 27 172 0
-304 -15 0
-304 -114 0
-304 12 0
-304 79 0
-304 -163 0
304 15 114 -12 -79 163 0
-305 18 0
-305 -183 0
-305 163 0
-305 86 0
-305 -95 0
305 -18 183 -163 -86 95 0
301 302 303 304 305 0
-306 -34 0
-306 155 0
-306 111 0
-306 -128 0
-306 180 0
306 34 -155 -111 128 -180 0
-307 90 0
-307 -5 0
-307 -108 0
-307 145 0
-307 -44 0
307 -90 5 108 -145 44 0
-308 -82 0
-308 -100 0
-308 -16 0
-308 -46 0
-308 -157 0
308 82 100 16 46 157 0
-309 190 0
-309 -38 0
-309 -47 0
-309 -13 0
-309 -20 0
309 -190 38 47 13 20 0
-310 46 0
-310 44 0
-310 -161 0
-310 -88 0
-310 -80 0
310 -46 -44 161 88 80 0
306 307 308 309 310 0
-311 53 0
-311 125 0
-311 98 0
-311 66 0
-311 -163 0
311 -53 -125 -98 -66 163 0
-312 75 0
-312 -94 0
-312 148 0
-312 -128 0
-312 124 0
312 -75 94 -148 128 -124 0
-313 168 0
-313 78 0
-313 -166 0
-313 -97 0
-313 -125 0
313 -168 -78 166 97 125 0
-314 167 0
-314 -139 0
-314 2 0
-314 -149 0
-314 -58 0
314 -167 139 -2 149 58 0
-315 9 0
-315 66 0
-315 -98 0
-315 -97 0
-315 -145 0
315 -9 -66 98 97 145 0
311 312 313 314 315 0
-316 -139 0
-316 -150 0
-316 22 0
-316 -145 0
-316 92 0
316 139 150 -22 145 -92 0
-317 61 0
-317 149 0
-317 162 0
-317 -77 0
-317 -160 0
317 -61 -149 -162 77 160 0
-318 111 0
-318 -82 0
-318 127 0
-318 24 0
-318 -40 0
318 -111 82 -127 -24 40 0
-319 138 0
-319 -14 0
-319 39 0
-319 -45 0
-319 147 0
319 -138 14 -39 45 -147 0
-320 49 0
-320 -150 0
-320 160 0
-320 68 0
-320 -157 0
320 -49 150 -160 -68 157 0
316 317 318 319 320 0
-321 -123 0
-321 55 0
-321 166 0
-321 -135 0
-321 -177 0
321 123 -55 -166 135 177 0
-322 -42 0
-322 147 0
-322 -167 0
-322 -168 0
-322 -116 0
322 42 -147 167 168 116 0
-323 -8 0
-323 -83 0
-323 -117 0
-323 -33 0
-323 75 0
323 8 83 117 33 -75 0
-324 -40 0
-324 -169 0
-324 -171 0
-324 -109 0
-324 55 0
324 40 169 171 109 -55 0
-325 21 0
-325 -58 0
-325 147 0
-325 -122 0
-325 -24 0
325 -21 58 -147 122 24 0
321 322 323 324 325 0
-326 -91 0
-326 104 0
-326 -41 0
-326 -170 0
-326 -5 0
326 91 -104 41 170 5 0
-327 85 0
-327 -176 0
-327 -16 0
-327 -152 0
-327 -41 0
327 -85 176 16 152 41 0
-328 87 0
-328 20 0
-328 -180 0
-328 86 0
-328 -163 0
328 -87 -20 180 -86 163 0
-329 126 0
-329 141 0
-329 -159 0
-329 76 0
-329 -165 0
329 -126 -141 159 -76 165 0
-330 158 0
-330 121 0
-330 82 0
-330 -36 0
-330 90 0
330 -158 -121 -82 36 -90 0
326 327 328 329 330 0
-331 108 0
-331 46 0
-331 81 0
-331 71 0
-331 149 0
331 -108 -46 -81 -71 -149 0
-332 -89 0
-332 -109 0
-332 -67 0
-332 -129 0
-332 -55 0
332 89 109 67 129 55 0
-333 -153 0
-333 -165 0
-333 -129 0
-333 -100 0
-333 22 0
333 153 165 129 100 -22 0
-334 -70 0
-334 -185 0
-334 107 0
-334 -120 0
-334 104 0
334 70 185 -107 120 -104 0
-335 -161 0
-335 98 0
-335 142 0
-335 15 0
-335 89 0
335 161 -98 -142 -15 -89 0
331 332 333 334 335 0
-336 -125 0
-336 -17 0
-336 -37 0
-336 -127 0
-336 -170 0
336 125 17 37 127 170 0
-337 -149 0
-337 41 0
-337 24 0
-337 -132 0
-337 -80 0
337 149 -41 -24 132 80 0
-338 43 0
-338 9 0
-338 -56 0
-338 -89 0
-338 -90 0
338 -43 -9 56 89 90 0
-339 81 0
-339 -15 0
-339 -125 0
-339 -135 0
-339 -91 0
339 -81 15 125 135 91 0
-340 -123 0
-340 97 0
-340 -129 0
-340 105 0
-340 87 0
340 123 -97 129 -105 -87 0
336 337 338 339 340 0
-341 -72 0
-341 -140 0
-341 -150 0
-341 76 0
-341 -36 0
341 72 140 150 -76 36 0
-342 139 0
-342 -137 0
-342 181 0
-342 -67 0
-342 130 0
342 -139 137 -181 67 -130 0
-343 -177 0
-343 -61 0
-343 48 0
-343 -46 0
-343 -124 0
343 177 61 -48 46 124 0
-344 60 0
-344 147 0
-344 -136 0
-344 -61 0
-344 137 0
344 -60 -147 136 61 -137 0
-345 126 0
-345 81 0
-345 112 0
-345 -151 0
-345 -77 0
345 -126 -81 -112 151 77 0
341 342 343 344 345 0
-346 22 0
-346 -51 0
-346 -122 0
-346 -116 0
-346 180 0
346 -22 51 122 116 -180 0
-347 38 0
-347 -53 0
-347 156 0
-347 99 0
-347 62 0
347 -38 53 -156 -99 -62 0
-348 -75 0
-348 -114 0
-348 164 0
-348 -101 0
-348 36 0
348 75 114 -164 101 -36 0
-349 158 0
-349 124 0
-349 90 0
-349 -9 0
-349 -189 0
349 -158 -124 -90 9 189 0
-350 -160 0
-350 56 0
-350 134 0
-350 140 0
-350 173 0
350 160 -56 -134 -140 -173 0
346 347 348 349 350 0
-351 -143 0
-351 -81 0
-351 -127 0
-351 36 0
-351 95 0
351 143 81 127 -36 -95 0
-352 20 0
-352 -32 0
-352 126 0
-352 85 0
-352 -63 0
352 -20 32 -126 -85 63 0
-353 99 0
-353 141 0
-353 90 0
-353 -35 0
-353 166 0
353 -99 -141 -90 35 -166 0
-354 186 0
-354 -169 0
-354 62 0
-354 156 0
-354 101 0
354 -186 169 -62 -156 -101 0
-355 -71 0
-355 150 0
-355 -19 0
-355 -13 0
-355 12 0
355 71 -150 19 13 -12 0
351 352 353 354 355 0
-356 -159 0
-356 -27 0
-356 184 0
-356 156 0
-356 -175 0
356 159 27 -184 -156 175 0
-357 134 0
-357 -161 0
-357 -16 0
-357 170 0
-357 132 0
357 -134 161 16 -170 -132 0
-358 45 0
-358 7 0
-358 -171 0
-358 153 0
-358 -73 0
358 -45 -7 171 -153 73 0
-359 175 0
-359 190 0
-359 38 0
-359 69 0
-359 94 0
359 -175 -190 -38 -69 -94 0
-360 -144 0
-360 -143 0
-360 70 0
-360 108 0
-360 18 0
360 144 143 -70 -108 -18 0
356 357 358 359 360 0
-361 33 0
-361 -8 0
-361 163 0
-361 181 0
-361 140 0
361 -33 8 -163 -181 -140 0
-362 -31 0
-362 70 0
-362 -145 0
-362 106 0
-362 -129 0
362 31 -70 145 -106 129 0
-363 86 0
-363 185 0
-363 -182 0
-363 -137 0
-363 -88 0
363 -86 -185 182 137 88 0
-364 45 0
-364 -91 0
-364 125 0
-364 180 0
-364 41 0
364 -45 91 -125 -180 -41 0
-365 40 0
-365 -120 0
-365 -62 0
-365 -144 0
-365 16 0
365 -40 120 62 144 -16 0
361 362 363 364 365 0
-366 -27 0
-366 69 0
-366 -51 0
-366 181 0
-366 130 0
366 27 -69 51 -181 -130 0
-367 90 0
-367 -51 0
-367 109 0
-367 156 0
-367 -52 0
367 -90 51 -109 -156 52 0
-368 172 0
-368 131 0
-368 -79 0
-368 -55 0
-368 -54 0
368 -172 -131 79 55 54 0
-369 145 0
-369 97 0
-369 -132 0
-369 -10 0
-369 -79 0
369 -145 -97 132 10 79 0
-370 -129 0
-370 -118 0
-370 164 0
-370 74 0
-370 -31 0
370 129 118 -164 -74 31 0
366 367 368 369 370 0
-371 122 0
-371 75 0
-371 105 0
-371 87 0
-371 151 0
371 -122 -75 -105 -87 -151 0
-372 -50 0
-372 -137 0
-372 -45 0
-372 27 0
-372 107 0
372 50 137 45 -27 -107 0
-373 109 0
-373 174 0
-373 48 0
-373 115 0
-373 -9 0
373 -109 -174 -48 -115 9 0
-374 21 0
-374 -92 0
-374 -41 0
-374 -2 0
-374 -66 0
374 -21 92 41 2 66 0
-375 77 0
-375 68 0
-375 63 0
-375 2 0
-375 -26 0
375 -77 -68 -63 -2 26 0
371 372 373 374 375 0
-376 7 0
-376 140 0
-376 -51 0
-376 35 0
-376 156 0
376 -7 -140 51 -35 -156 0
-377 -6 0
-377 156 0
-377 108 0
-377 -99 0
-377 -177 0
377 6 -156 -108 99 177 0
-378 -6 0
-378 -158 0
-378 -122 0
-378 124 0
-378 65 0
378 6 158 122 -124 -65 0
-379 130 0
-379 16 0
-379 -25 0
-379 169 0
-379 41 0
379 -130 -16 25 -169 -41 0
-380 88 0
-380 66 0
-380 -168 0
-380 141 0
-380 -110 0
380 -88 -66 168 -141 110 0
376 377 378 379 380 0
-381 157 0
-381 -71 0
-381 177 0
-381 42 0
-381 -50 0
381 -157 71 -177 -42 50 0
-382 50 0
-382 158 0
-382 136 0
-382 119 0
-382 -106 0
382 -50 -158 -136 -119 106 0
-383 -34 0
-383 136 0
-383 -13 0
-383 -183 0
-383 -128 0
383 34 -136 13 183 128 0
-384 13 0
-384 -151 0
-384 -162 0
-384 -41 0
-384 181 0
384 -13 151 162 41 -181 0
-385 -23 0
-385 145 0
-385 95 0
-385 14 0
-385 99 0
385 23 -145 -95 -14 -99 0
381 382 383 384 385 0
-386 58 0
-386 -42 0
-386 -187 0
-386 152 0
-386 -29 0
386 -58 42 187 -152 29 0
-387 140 0
-387 73 0
-387 -108 0
-387 -86 0
-387 -114 0
387 -140 -73 108 86 114 0
-388 151 0
-388 180 0
-388 145 0
-388 175 0
-388 -82 0
388 -151 -180 -145 -175 82 0
-389 140 0
-389 2 0
-389 185 0
-389 -79 0
-389 186 0
389 -140 -2 -185 79 -186 0
-390 -158 0
-390 29 0
-390 -168 0
-390 179 0
-390 10 0
390 158 -29 168 -179 -10 0
386 387 388 389 390 0
-391 1 0
-391 11 0
-391 -158 0
-391 -176 0
-391 181 0
391 -1 -11 158 176 -181 0
-392 174 0
-392 144 0
-392 7 0
-392 68 0
-392 137 0
392 -174 -144 -7 -68 -137 0
-393 -185 0
-393 -175 0
-393 107 0
-393 -34 0
-393 -123 0
393 185 175 -107 34 123 0
-394 -112 0
-394 88 0
-394 -57 0
-394 -5 0
-394 -55 0
394 112 -88 57 5 55 0
-395 138 0
-395 34 0
-395 -106 0
-395 126 0
-395 184 0
395 -138 -34 106 -126 -184 0
391 392 393 394 395 0
-396 28 0
-396 15 0
-396 121 0
-396 174 0
-396 2 0
396 -28 -15 -121 -174 -2 0
-397 22 0
-397 -8 0
-397 -51 0
-397 177 0
-397 -131 0
397 -22 8 51 -177 131 0
-398 -118 0
-398 48 0
-398 -47 0
-398 30 0
-398 89 0
398 118 -48 47 -30 -89 0
-399 167 0
-399 149 0
-399 -46 0
-399 -169 0
-399 -78 0
399 -167 -149 46 169 78 0
-400 167 0
-400 -74 0
-400 -123 0
-400 60 0
-400 -78 0
400 -167 74 123 -60 78 0
396 397 398 399 400 0
-401 -48 0
-401 128 0
-401 129 0
-401 116 0
-401 17 0
401 48 -128 -129 -116 -17 0
-402 71 0
-402 77 0
-402 174 0
-402 9 0
-402 -118 0
402 -71 -77 -174 -9 118 0
-403 162 0
-403 -169 0
-403 -55 0
-403 187 0
-403 -139 0
403 -162 169 55 -187 139 0
-404 -158 0
-404 -190 0
-404 167 0
-404 -128 0
-404 -168 0
404 158 190 -167 128 168 0
-405 -151 0
-405 131 0
-405 -169 0
-405 -139 0
-405 -3 0
405 151 -131 169 139 3 0
401 402 403 404 405 0
-406 -147 0
-406 -131 0
-406 -152 0
-406 -44 0
-406 92 0
406 147 131 152 44 -92 0
-407 -169 0
-407 -66 0
-407 -175 0
-407 11 0
-407 -80 0
407 169 66 175 -11 80 0
-408 -94 0
-408 50 0
-408 173 0
-408 140 0
-408 131 0
408 94 -50 -173 -140 -131 0
-409 -100 0
-409 -56 0
-409 -158 0
-409 -105 0
-409 96 0
409 100 56 158 105 -96 0
-410 -68 0
-410 154 0
-410 103 0
-410 52 0
-410 -169 0
410 68 -154 -103 -52 169 0
406 407 408 409 410 0
-411 -190 0
-411 166 0
-411 -15 0
-411 -116 0
-411 -56 0
411 190 -166 15 116 56 0
-412 -76 0
-412 -163 0
-412 152 0
-412 127 0
-412 137 0
412 76 163 -152 -127 -137 0
-413 71 0
-413 123 0
-413 81 0
-413 141 0
-413 -178 0
413 -71 -123 -81 -141 178 0
-414 -142 0
-414 -71 0
-414 -109 0
-414 -122 0
-414 25 0
414 142 71 109 122 -25 0
-415 -67 0
-415 32 0
-415 33 0
-415 136 0
-415 100 0
415 67 -32 -33 -136 -100 0
411 412 413 414 415 0
-416 189 0
-416 -46 0
-416 6 0
-416 -142 0
-416 60 0
416 -189 46 -6 142 -60 0
-417 -87 0
-417 -34 0
-417 141 0
-417 -79 0
-417 -16 0
417 87 34 -141 79 16 0
-418 -159 0
-418 -180 0
-418 -73 0
-418 -97 0
-418 31 0
418 159 180 73 97 -31 0
-419 161 0
-419 -174 0
-419 22 0
-419 -24 0
-419 -96 0
419 -161 174 -22 24 96 0
-420 -107 0
-420 190 0
-420 178 0
-420 -84 0
-420 -82 0
420 107 -190 -178 84 82 0
416 417 418 419 420 0
-421 146 0
-421 84 0
-421 103 0
-421 -46 0
-421 132 0
421 -146 -84 -103 46 -132 0
-422 -80 0
-422 -102 0
-422 5 0
-422 -91 0
-422 21 0
422 80 102 -5 91 -21 0
-423 102 0
-423 -147 0
-423 -100 0
-423 -103 0
-423 -34 0
423 -102 147 100 103 34 0
-424 -109 0
-424 79 0
-424 -37 0
-424 -184 0
-424 -26 0
424 109 -79 37 184 26 0
-425 60 0
-425 131 0
-425 33 0
-425 -13 0
-425 137 0
425 -60 -131 -33 13 -137 0
421 422 423 424 425 0
-426 -26 0
-426 -75 0
-426 153 0
-426 30 0
-426 170 0
426 26 75 -153 -30 -170 0
-427 25 0
-427 147 0
-427 -40 0
-427 41 0
-427 -16 0
427 -25 -147 40 -41 16 0
-428 -54 0
-428 -44 0
-428 -169 0
-428 136 0
-428 53 0
428 54 44 169 -136 -53 0
-429 -142 0
-429 150 0
-429 -96 0
-429 -59 0
-429 19 0
429 142 -150 96 59 -19 0
-430 91 0
-430 -62 0
-430 22 0
-430 108 0
-430 134 0
430 -91 62 -22 -108 -134 0
426 427 428 429 430 0
